NAME 
OBJSENSE MAX
ROWS
 N  OBJ
 L  packing[0]
 L  packing[1]
 L  packing[2]
 L  packing[3]
 L  packing[4]
 L  packing[5]
 L  packing[6]
 L  packing[7]
 L  packing[8]
 L  packing[9]
 L  packing[10]
 L  packing[11]
 L  packing[12]
 L  packing[13]
 L  packing[14]
 L  packing[15]
 L  packing[16]
 L  packing[17]
 L  packing[18]
 L  packing[19]
 L  packing[20]
 L  packing[21]
 L  packing[22]
 L  packing[23]
 L  packing[24]
 L  packing[25]
 L  packing[26]
 L  packing[27]
 L  packing[28]
 L  packing[29]
 L  packing[30]
 L  packing[31]
 L  packing[32]
 L  packing[33]
 L  packing[34]
 L  packing[35]
 L  packing[36]
 L  packing[37]
 L  packing[38]
 L  packing[39]
 L  packing[40]
 L  packing[41]
 L  packing[42]
 L  packing[43]
 L  packing[44]
 L  packing[45]
 L  packing[46]
 L  packing[47]
 L  packing[48]
 L  packing[49]
 L  R52     
COLUMNS
    MARKER    'MARKER'                 'INTORG'
    x[1]      OBJ       10
    x[1]      packing[2]  84
    x[1]      packing[3]  20
    x[1]      packing[4]  64
    x[1]      packing[5]  57
    x[1]      packing[6]  37
    x[1]      packing[8]  50
    x[1]      packing[10]  86
    x[1]      packing[11]  68
    x[1]      packing[12]  85
    x[1]      packing[13]  86
    x[1]      packing[15]  171
    x[1]      packing[16]  118
    x[1]      packing[19]  110
    x[1]      packing[20]  50
    x[1]      packing[22]  140
    x[1]      packing[24]  188
    x[1]      packing[27]  192
    x[1]      packing[28]  70
    x[1]      packing[30]  89
    x[1]      packing[31]  20
    x[1]      packing[32]  146
    x[1]      packing[33]  145
    x[1]      packing[34]  132
    x[1]      packing[36]  2
    x[1]      packing[37]  2
    x[1]      packing[39]  87
    x[1]      packing[40]  145
    x[1]      packing[41]  132
    x[1]      packing[42]  177
    x[1]      packing[43]  134
    x[1]      packing[44]  157
    x[1]      packing[45]  120
    x[1]      packing[46]  99
    x[1]      packing[48]  192
    x[1]      packing[49]  87
    x[2]      OBJ       54
    x[2]      packing[0]  33
    x[2]      packing[2]  79
    x[2]      packing[3]  38
    x[2]      packing[4]  35
    x[2]      packing[5]  18
    x[2]      packing[10]  159
    x[2]      packing[12]  142
    x[2]      packing[13]  61
    x[2]      packing[14]  77
    x[2]      packing[16]  199
    x[2]      packing[17]  164
    x[2]      packing[18]  198
    x[2]      packing[19]  197
    x[2]      packing[21]  75
    x[2]      packing[22]  5
    x[2]      packing[23]  42
    x[2]      packing[24]  4
    x[2]      packing[25]  187
    x[2]      packing[26]  16
    x[2]      packing[28]  142
    x[2]      packing[29]  77
    x[2]      packing[30]  64
    x[2]      packing[31]  68
    x[2]      packing[32]  9
    x[2]      packing[35]  144
    x[2]      packing[36]  133
    x[2]      packing[37]  11
    x[2]      packing[39]  170
    x[2]      packing[40]  48
    x[2]      packing[41]  155
    x[2]      packing[42]  66
    x[2]      packing[43]  103
    x[2]      packing[44]  150
    x[2]      packing[45]  147
    x[2]      packing[46]  57
    x[3]      OBJ       50
    x[3]      packing[0]  120
    x[3]      packing[1]  16
    x[3]      packing[2]  9
    x[3]      packing[3]  43
    x[3]      packing[5]  76
    x[3]      packing[7]  30
    x[3]      packing[8]  87
    x[3]      packing[9]  57
    x[3]      packing[10]  50
    x[3]      packing[11]  171
    x[3]      packing[12]  162
    x[3]      packing[13]  124
    x[3]      packing[14]  143
    x[3]      packing[16]  9
    x[3]      packing[17]  133
    x[3]      packing[18]  109
    x[3]      packing[19]  71
    x[3]      packing[20]  162
    x[3]      packing[21]  9
    x[3]      packing[22]  105
    x[3]      packing[23]  149
    x[3]      packing[25]  198
    x[3]      packing[26]  3
    x[3]      packing[28]  9
    x[3]      packing[29]  99
    x[3]      packing[30]  84
    x[3]      packing[31]  63
    x[3]      packing[32]  26
    x[3]      packing[34]  141
    x[3]      packing[36]  34
    x[3]      packing[37]  176
    x[3]      packing[38]  39
    x[3]      packing[39]  139
    x[3]      packing[40]  142
    x[3]      packing[41]  60
    x[3]      packing[42]  197
    x[3]      packing[43]  112
    x[3]      packing[44]  154
    x[3]      packing[47]  48
    x[3]      packing[49]  132
    x[4]      OBJ       184
    x[4]      packing[1]  128
    x[4]      packing[2]  181
    x[4]      packing[4]  121
    x[4]      packing[5]  80
    x[4]      packing[7]  173
    x[4]      packing[8]  68
    x[4]      packing[9]  142
    x[4]      packing[10]  96
    x[4]      packing[12]  164
    x[4]      packing[14]  41
    x[4]      packing[16]  93
    x[4]      packing[19]  146
    x[4]      packing[20]  63
    x[4]      packing[21]  95
    x[4]      packing[22]  77
    x[4]      packing[23]  17
    x[4]      packing[24]  172
    x[4]      packing[26]  19
    x[4]      packing[28]  41
    x[4]      packing[29]  25
    x[4]      packing[30]  57
    x[4]      packing[31]  145
    x[4]      packing[32]  139
    x[4]      packing[34]  194
    x[4]      packing[36]  113
    x[4]      packing[38]  16
    x[4]      packing[39]  128
    x[4]      packing[41]  67
    x[4]      packing[42]  102
    x[4]      packing[43]  54
    x[4]      packing[46]  164
    x[4]      packing[47]  56
    x[4]      packing[48]  198
    x[4]      packing[49]  57
    x[4]      R52       1
    x[5]      OBJ       186
    x[5]      packing[0]  122
    x[5]      packing[1]  160
    x[5]      packing[4]  109
    x[5]      packing[5]  95
    x[5]      packing[6]  33
    x[5]      packing[7]  166
    x[5]      packing[8]  47
    x[5]      packing[9]  66
    x[5]      packing[10]  129
    x[5]      packing[11]  168
    x[5]      packing[12]  85
    x[5]      packing[13]  80
    x[5]      packing[15]  109
    x[5]      packing[16]  89
    x[5]      packing[18]  37
    x[5]      packing[19]  155
    x[5]      packing[20]  136
    x[5]      packing[21]  164
    x[5]      packing[22]  85
    x[5]      packing[23]  66
    x[5]      packing[24]  157
    x[5]      packing[25]  63
    x[5]      packing[26]  71
    x[5]      packing[27]  195
    x[5]      packing[28]  63
    x[5]      packing[29]  133
    x[5]      packing[30]  53
    x[5]      packing[32]  198
    x[5]      packing[33]  187
    x[5]      packing[35]  78
    x[5]      packing[36]  81
    x[5]      packing[37]  129
    x[5]      packing[38]  72
    x[5]      packing[40]  63
    x[5]      packing[41]  52
    x[5]      packing[42]  17
    x[5]      packing[43]  103
    x[5]      packing[45]  65
    x[5]      packing[46]  20
    x[5]      packing[49]  159
    x[5]      R52       1
    x[6]      OBJ       46
    x[6]      packing[0]  197
    x[6]      packing[1]  82
    x[6]      packing[2]  181
    x[6]      packing[3]  188
    x[6]      packing[5]  5
    x[6]      packing[6]  101
    x[6]      packing[7]  165
    x[6]      packing[8]  102
    x[6]      packing[9]  22
    x[6]      packing[10]  187
    x[6]      packing[11]  173
    x[6]      packing[12]  99
    x[6]      packing[13]  69
    x[6]      packing[14]  54
    x[6]      packing[15]  116
    x[6]      packing[17]  25
    x[6]      packing[18]  60
    x[6]      packing[19]  111
    x[6]      packing[20]  196
    x[6]      packing[21]  20
    x[6]      packing[22]  118
    x[6]      packing[23]  61
    x[6]      packing[24]  124
    x[6]      packing[26]  103
    x[6]      packing[27]  136
    x[6]      packing[28]  76
    x[6]      packing[29]  77
    x[6]      packing[30]  122
    x[6]      packing[32]  162
    x[6]      packing[34]  192
    x[6]      packing[35]  17
    x[6]      packing[38]  83
    x[6]      packing[39]  158
    x[6]      packing[40]  180
    x[6]      packing[41]  193
    x[6]      packing[42]  41
    x[6]      packing[45]  47
    x[6]      packing[46]  113
    x[6]      packing[47]  96
    x[6]      packing[49]  161
    x[7]      OBJ       94
    x[7]      packing[1]  143
    x[7]      packing[2]  22
    x[7]      packing[3]  122
    x[7]      packing[4]  184
    x[7]      packing[5]  89
    x[7]      packing[6]  29
    x[7]      packing[9]  133
    x[7]      packing[10]  152
    x[7]      packing[11]  21
    x[7]      packing[12]  189
    x[7]      packing[13]  40
    x[7]      packing[14]  94
    x[7]      packing[16]  190
    x[7]      packing[20]  138
    x[7]      packing[22]  12
    x[7]      packing[23]  18
    x[7]      packing[24]  11
    x[7]      packing[25]  111
    x[7]      packing[26]  51
    x[7]      packing[27]  185
    x[7]      packing[28]  64
    x[7]      packing[29]  197
    x[7]      packing[30]  121
    x[7]      packing[31]  86
    x[7]      packing[33]  104
    x[7]      packing[34]  135
    x[7]      packing[35]  142
    x[7]      packing[36]  182
    x[7]      packing[37]  128
    x[7]      packing[38]  9
    x[7]      packing[42]  127
    x[7]      packing[46]  123
    x[7]      packing[47]  12
    x[7]      packing[48]  195
    x[8]      OBJ       122
    x[8]      packing[1]  113
    x[8]      packing[3]  129
    x[8]      packing[8]  7
    x[8]      packing[9]  186
    x[8]      packing[10]  151
    x[8]      packing[11]  178
    x[8]      packing[12]  159
    x[8]      packing[13]  181
    x[8]      packing[15]  148
    x[8]      packing[16]  163
    x[8]      packing[18]  82
    x[8]      packing[19]  87
    x[8]      packing[20]  41
    x[8]      packing[21]  107
    x[8]      packing[22]  151
    x[8]      packing[23]  56
    x[8]      packing[25]  69
    x[8]      packing[26]  193
    x[8]      packing[27]  122
    x[8]      packing[28]  60
    x[8]      packing[29]  111
    x[8]      packing[30]  129
    x[8]      packing[31]  152
    x[8]      packing[32]  24
    x[8]      packing[33]  35
    x[8]      packing[34]  6
    x[8]      packing[35]  123
    x[8]      packing[36]  101
    x[8]      packing[37]  10
    x[8]      packing[39]  6
    x[8]      packing[40]  3
    x[8]      packing[41]  134
    x[8]      packing[42]  6
    x[8]      packing[43]  135
    x[8]      packing[44]  168
    x[8]      packing[45]  10
    x[8]      packing[46]  160
    x[8]      packing[47]  170
    x[8]      packing[48]  12
    x[9]      OBJ       161
    x[9]      packing[0]  100
    x[9]      packing[1]  105
    x[9]      packing[2]  147
    x[9]      packing[3]  168
    x[9]      packing[4]  51
    x[9]      packing[5]  165
    x[9]      packing[6]  31
    x[9]      packing[7]  14
    x[9]      packing[8]  98
    x[9]      packing[9]  91
    x[9]      packing[10]  41
    x[9]      packing[11]  149
    x[9]      packing[12]  183
    x[9]      packing[15]  23
    x[9]      packing[16]  132
    x[9]      packing[18]  34
    x[9]      packing[19]  149
    x[9]      packing[20]  127
    x[9]      packing[21]  53
    x[9]      packing[22]  50
    x[9]      packing[24]  17
    x[9]      packing[25]  135
    x[9]      packing[26]  7
    x[9]      packing[28]  52
    x[9]      packing[29]  97
    x[9]      packing[30]  17
    x[9]      packing[31]  141
    x[9]      packing[32]  90
    x[9]      packing[34]  10
    x[9]      packing[35]  114
    x[9]      packing[36]  59
    x[9]      packing[38]  160
    x[9]      packing[40]  13
    x[9]      packing[41]  75
    x[9]      packing[42]  70
    x[9]      packing[43]  154
    x[9]      packing[45]  103
    x[9]      packing[46]  21
    x[9]      packing[47]  159
    x[9]      packing[49]  91
    x[9]      R52       1
    x[10]     OBJ       190
    x[10]     packing[0]  58
    x[10]     packing[1]  18
    x[10]     packing[4]  59
    x[10]     packing[5]  69
    x[10]     packing[6]  177
    x[10]     packing[7]  155
    x[10]     packing[8]  42
    x[10]     packing[9]  65
    x[10]     packing[10]  175
    x[10]     packing[11]  11
    x[10]     packing[12]  144
    x[10]     packing[13]  101
    x[10]     packing[14]  185
    x[10]     packing[16]  22
    x[10]     packing[17]  180
    x[10]     packing[18]  129
    x[10]     packing[19]  194
    x[10]     packing[20]  75
    x[10]     packing[21]  153
    x[10]     packing[23]  63
    x[10]     packing[25]  37
    x[10]     packing[26]  21
    x[10]     packing[27]  170
    x[10]     packing[28]  181
    x[10]     packing[29]  176
    x[10]     packing[30]  24
    x[10]     packing[31]  181
    x[10]     packing[32]  197
    x[10]     packing[33]  87
    x[10]     packing[34]  190
    x[10]     packing[35]  9
    x[10]     packing[36]  153
    x[10]     packing[37]  24
    x[10]     packing[39]  186
    x[10]     packing[44]  143
    x[10]     packing[45]  176
    x[10]     packing[46]  167
    x[10]     packing[48]  80
    x[10]     packing[49]  84
    x[10]     R52       1
    x[11]     OBJ       163
    x[11]     packing[0]  100
    x[11]     packing[1]  63
    x[11]     packing[2]  63
    x[11]     packing[3]  106
    x[11]     packing[6]  132
    x[11]     packing[9]  122
    x[11]     packing[11]  82
    x[11]     packing[12]  83
    x[11]     packing[13]  162
    x[11]     packing[14]  88
    x[11]     packing[15]  132
    x[11]     packing[16]  187
    x[11]     packing[18]  197
    x[11]     packing[19]  4
    x[11]     packing[20]  162
    x[11]     packing[21]  162
    x[11]     packing[22]  144
    x[11]     packing[23]  176
    x[11]     packing[25]  123
    x[11]     packing[27]  126
    x[11]     packing[28]  160
    x[11]     packing[30]  68
    x[11]     packing[32]  191
    x[11]     packing[33]  156
    x[11]     packing[35]  53
    x[11]     packing[36]  55
    x[11]     packing[38]  81
    x[11]     packing[39]  129
    x[11]     packing[41]  181
    x[11]     packing[42]  31
    x[11]     packing[43]  62
    x[11]     packing[44]  41
    x[11]     packing[45]  46
    x[11]     packing[46]  37
    x[11]     packing[47]  60
    x[11]     packing[48]  174
    x[11]     R52       1
    x[12]     OBJ       72
    x[12]     packing[1]  158
    x[12]     packing[2]  39
    x[12]     packing[3]  79
    x[12]     packing[5]  152
    x[12]     packing[6]  20
    x[12]     packing[8]  165
    x[12]     packing[9]  71
    x[12]     packing[10]  152
    x[12]     packing[12]  172
    x[12]     packing[13]  39
    x[12]     packing[14]  179
    x[12]     packing[15]  107
    x[12]     packing[16]  42
    x[12]     packing[18]  134
    x[12]     packing[19]  125
    x[12]     packing[20]  110
    x[12]     packing[22]  93
    x[12]     packing[23]  21
    x[12]     packing[24]  81
    x[12]     packing[25]  158
    x[12]     packing[26]  119
    x[12]     packing[27]  73
    x[12]     packing[29]  78
    x[12]     packing[31]  112
    x[12]     packing[32]  71
    x[12]     packing[33]  105
    x[12]     packing[34]  5
    x[12]     packing[35]  163
    x[12]     packing[36]  31
    x[12]     packing[38]  75
    x[12]     packing[39]  15
    x[12]     packing[40]  99
    x[12]     packing[41]  180
    x[12]     packing[42]  162
    x[12]     packing[43]  133
    x[12]     packing[45]  184
    x[12]     packing[46]  102
    x[12]     packing[48]  39
    x[13]     OBJ       86
    x[13]     packing[0]  155
    x[13]     packing[1]  109
    x[13]     packing[2]  16
    x[13]     packing[3]  164
    x[13]     packing[4]  112
    x[13]     packing[6]  130
    x[13]     packing[7]  111
    x[13]     packing[10]  45
    x[13]     packing[12]  138
    x[13]     packing[13]  53
    x[13]     packing[14]  162
    x[13]     packing[15]  153
    x[13]     packing[17]  184
    x[13]     packing[19]  89
    x[13]     packing[21]  10
    x[13]     packing[22]  109
    x[13]     packing[23]  178
    x[13]     packing[24]  145
    x[13]     packing[26]  148
    x[13]     packing[28]  117
    x[13]     packing[29]  126
    x[13]     packing[30]  76
    x[13]     packing[31]  42
    x[13]     packing[34]  109
    x[13]     packing[35]  176
    x[13]     packing[36]  103
    x[13]     packing[37]  159
    x[13]     packing[38]  69
    x[13]     packing[41]  20
    x[13]     packing[42]  177
    x[13]     packing[43]  163
    x[13]     packing[44]  88
    x[13]     packing[45]  137
    x[13]     packing[46]  77
    x[13]     packing[47]  157
    x[13]     packing[48]  133
    x[13]     packing[49]  51
    x[14]     OBJ       175
    x[14]     packing[1]  103
    x[14]     packing[2]  32
    x[14]     packing[3]  117
    x[14]     packing[4]  187
    x[14]     packing[6]  9
    x[14]     packing[7]  17
    x[14]     packing[8]  145
    x[14]     packing[9]  98
    x[14]     packing[10]  101
    x[14]     packing[11]  164
    x[14]     packing[12]  110
    x[14]     packing[13]  86
    x[14]     packing[14]  181
    x[14]     packing[15]  20
    x[14]     packing[19]  87
    x[14]     packing[20]  114
    x[14]     packing[21]  179
    x[14]     packing[22]  113
    x[14]     packing[23]  166
    x[14]     packing[24]  34
    x[14]     packing[25]  188
    x[14]     packing[26]  73
    x[14]     packing[28]  1
    x[14]     packing[29]  64
    x[14]     packing[31]  16
    x[14]     packing[33]  160
    x[14]     packing[37]  7
    x[14]     packing[38]  53
    x[14]     packing[40]  134
    x[14]     packing[41]  15
    x[14]     packing[42]  96
    x[14]     packing[43]  82
    x[14]     packing[44]  150
    x[14]     packing[45]  29
    x[14]     packing[46]  79
    x[14]     packing[47]  90
    x[14]     packing[48]  128
    x[14]     packing[49]  44
    x[15]     OBJ       105
    x[15]     packing[1]  89
    x[15]     packing[2]  60
    x[15]     packing[6]  85
    x[15]     packing[7]  14
    x[15]     packing[8]  110
    x[15]     packing[10]  10
    x[15]     packing[11]  22
    x[15]     packing[14]  116
    x[15]     packing[15]  45
    x[15]     packing[17]  56
    x[15]     packing[19]  151
    x[15]     packing[20]  142
    x[15]     packing[21]  113
    x[15]     packing[23]  125
    x[15]     packing[24]  56
    x[15]     packing[25]  140
    x[15]     packing[26]  154
    x[15]     packing[28]  56
    x[15]     packing[29]  39
    x[15]     packing[30]  162
    x[15]     packing[31]  24
    x[15]     packing[32]  41
    x[15]     packing[33]  28
    x[15]     packing[34]  159
    x[15]     packing[35]  14
    x[15]     packing[36]  85
    x[15]     packing[37]  31
    x[15]     packing[38]  105
    x[15]     packing[39]  102
    x[15]     packing[40]  95
    x[15]     packing[42]  37
    x[15]     packing[43]  57
    x[15]     packing[44]  45
    x[15]     packing[46]  160
    x[15]     packing[47]  31
    x[15]     packing[48]  134
    x[15]     packing[49]  28
    x[16]     OBJ       1
    x[16]     packing[0]  153
    x[16]     packing[2]  46
    x[16]     packing[3]  49
    x[16]     packing[5]  63
    x[16]     packing[6]  169
    x[16]     packing[8]  50
    x[16]     packing[10]  91
    x[16]     packing[11]  65
    x[16]     packing[12]  81
    x[16]     packing[13]  91
    x[16]     packing[14]  79
    x[16]     packing[15]  174
    x[16]     packing[16]  20
    x[16]     packing[17]  13
    x[16]     packing[19]  90
    x[16]     packing[20]  111
    x[16]     packing[21]  133
    x[16]     packing[22]  32
    x[16]     packing[23]  37
    x[16]     packing[24]  64
    x[16]     packing[25]  187
    x[16]     packing[26]  59
    x[16]     packing[27]  176
    x[16]     packing[29]  158
    x[16]     packing[30]  30
    x[16]     packing[33]  72
    x[16]     packing[34]  19
    x[16]     packing[35]  194
    x[16]     packing[36]  142
    x[16]     packing[37]  58
    x[16]     packing[39]  52
    x[16]     packing[40]  135
    x[16]     packing[41]  70
    x[16]     packing[42]  179
    x[16]     packing[44]  122
    x[16]     packing[45]  39
    x[16]     packing[46]  109
    x[16]     packing[47]  33
    x[16]     packing[48]  173
    x[16]     packing[49]  47
    x[17]     OBJ       53
    x[17]     packing[0]  51
    x[17]     packing[1]  126
    x[17]     packing[2]  114
    x[17]     packing[3]  74
    x[17]     packing[4]  105
    x[17]     packing[5]  80
    x[17]     packing[6]  32
    x[17]     packing[7]  94
    x[17]     packing[8]  191
    x[17]     packing[9]  35
    x[17]     packing[10]  50
    x[17]     packing[11]  157
    x[17]     packing[12]  86
    x[17]     packing[13]  195
    x[17]     packing[16]  195
    x[17]     packing[18]  40
    x[17]     packing[20]  104
    x[17]     packing[21]  108
    x[17]     packing[23]  41
    x[17]     packing[24]  41
    x[17]     packing[25]  183
    x[17]     packing[26]  35
    x[17]     packing[27]  47
    x[17]     packing[28]  11
    x[17]     packing[30]  122
    x[17]     packing[32]  133
    x[17]     packing[33]  30
    x[17]     packing[34]  197
    x[17]     packing[35]  159
    x[17]     packing[36]  43
    x[17]     packing[38]  158
    x[17]     packing[39]  39
    x[17]     packing[40]  95
    x[17]     packing[43]  17
    x[17]     packing[44]  63
    x[17]     packing[45]  46
    x[17]     packing[47]  81
    x[17]     packing[48]  39
    x[18]     OBJ       131
    x[18]     packing[0]  56
    x[18]     packing[1]  63
    x[18]     packing[2]  188
    x[18]     packing[4]  181
    x[18]     packing[6]  160
    x[18]     packing[7]  151
    x[18]     packing[8]  87
    x[18]     packing[9]  145
    x[18]     packing[11]  67
    x[18]     packing[12]  11
    x[18]     packing[13]  17
    x[18]     packing[14]  114
    x[18]     packing[15]  118
    x[18]     packing[18]  199
    x[18]     packing[21]  91
    x[18]     packing[22]  158
    x[18]     packing[23]  174
    x[18]     packing[24]  56
    x[18]     packing[25]  45
    x[18]     packing[26]  35
    x[18]     packing[27]  147
    x[18]     packing[28]  38
    x[18]     packing[29]  13
    x[18]     packing[30]  56
    x[18]     packing[31]  116
    x[18]     packing[33]  24
    x[18]     packing[34]  72
    x[18]     packing[35]  197
    x[18]     packing[36]  16
    x[18]     packing[37]  91
    x[18]     packing[42]  2
    x[18]     packing[43]  31
    x[18]     packing[45]  21
    x[18]     packing[46]  191
    x[18]     packing[47]  69
    x[18]     packing[48]  181
    x[18]     packing[49]  146
    x[19]     OBJ       139
    x[19]     packing[0]  129
    x[19]     packing[1]  45
    x[19]     packing[2]  45
    x[19]     packing[3]  11
    x[19]     packing[4]  131
    x[19]     packing[5]  31
    x[19]     packing[6]  120
    x[19]     packing[7]  90
    x[19]     packing[8]  174
    x[19]     packing[9]  167
    x[19]     packing[10]  175
    x[19]     packing[12]  165
    x[19]     packing[17]  103
    x[19]     packing[18]  121
    x[19]     packing[19]  77
    x[19]     packing[21]  162
    x[19]     packing[25]  31
    x[19]     packing[27]  94
    x[19]     packing[28]  111
    x[19]     packing[29]  39
    x[19]     packing[31]  157
    x[19]     packing[32]  45
    x[19]     packing[33]  189
    x[19]     packing[34]  98
    x[19]     packing[35]  197
    x[19]     packing[39]  169
    x[19]     packing[40]  80
    x[19]     packing[41]  128
    x[19]     packing[42]  175
    x[19]     packing[43]  90
    x[19]     packing[46]  9
    x[20]     OBJ       28
    x[20]     packing[0]  106
    x[20]     packing[1]  86
    x[20]     packing[2]  118
    x[20]     packing[3]  53
    x[20]     packing[4]  82
    x[20]     packing[7]  188
    x[20]     packing[8]  48
    x[20]     packing[9]  37
    x[20]     packing[12]  151
    x[20]     packing[13]  2
    x[20]     packing[14]  112
    x[20]     packing[15]  193
    x[20]     packing[16]  106
    x[20]     packing[17]  152
    x[20]     packing[18]  30
    x[20]     packing[19]  85
    x[20]     packing[20]  130
    x[20]     packing[22]  80
    x[20]     packing[23]  181
    x[20]     packing[24]  44
    x[20]     packing[25]  14
    x[20]     packing[26]  194
    x[20]     packing[27]  36
    x[20]     packing[29]  6
    x[20]     packing[31]  6
    x[20]     packing[33]  44
    x[20]     packing[34]  189
    x[20]     packing[36]  34
    x[20]     packing[37]  51
    x[20]     packing[39]  139
    x[20]     packing[40]  159
    x[20]     packing[41]  72
    x[20]     packing[42]  19
    x[20]     packing[43]  160
    x[20]     packing[44]  143
    x[20]     packing[45]  9
    x[20]     packing[46]  50
    x[20]     packing[48]  106
    x[20]     packing[49]  199
    MARKER    'MARKER'                 'INTEND'
RHS
    RHS1      packing[0]  690
    RHS1      packing[1]  804
    RHS1      packing[2]  712
    RHS1      packing[3]  681
    RHS1      packing[4]  711
    RHS1      packing[5]  490
    RHS1      packing[6]  633
    RHS1      packing[7]  684
    RHS1      packing[8]  736
    RHS1      packing[9]  719
    RHS1      packing[10]  925
    RHS1      packing[11]  748
    RHS1      packing[12]  1205
    RHS1      packing[13]  694
    RHS1      packing[14]  813
    RHS1      packing[15]  755
    RHS1      packing[16]  783
    RHS1      packing[17]  505
    RHS1      packing[18]  685
    RHS1      packing[19]  964
    RHS1      packing[20]  931
    RHS1      packing[21]  817
    RHS1      packing[22]  736
    RHS1      packing[23]  786
    RHS1      packing[24]  597
    RHS1      packing[25]  935
    RHS1      packing[26]  651
    RHS1      packing[27]  850
    RHS1      packing[28]  626
    RHS1      packing[29]  758
    RHS1      packing[30]  637
    RHS1      packing[31]  665
    RHS1      packing[32]  736
    RHS1      packing[33]  683
    RHS1      packing[34]  924
    RHS1      packing[35]  890
    RHS1      packing[36]  684
    RHS1      packing[37]  439
    RHS1      packing[38]  460
    RHS1      packing[39]  760
    RHS1      packing[40]  696
    RHS1      packing[41]  767
    RHS1      packing[42]  841
    RHS1      packing[43]  795
    RHS1      packing[44]  712
    RHS1      packing[45]  590
    RHS1      packing[46]  869
    RHS1      packing[47]  531
    RHS1      packing[48]  892
    RHS1      packing[49]  643
    RHS1      R52       4
BOUNDS
 BV BND1      x[1]    
 BV BND1      x[2]    
 BV BND1      x[3]    
 BV BND1      x[4]    
 BV BND1      x[5]    
 BV BND1      x[6]    
 BV BND1      x[7]    
 BV BND1      x[8]    
 BV BND1      x[9]    
 BV BND1      x[10]   
 BV BND1      x[11]   
 BV BND1      x[12]   
 BV BND1      x[13]   
 BV BND1      x[14]   
 BV BND1      x[15]   
 BV BND1      x[16]   
 BV BND1      x[17]   
 BV BND1      x[18]   
 BV BND1      x[19]   
 BV BND1      x[20]   
ENDATA
